Project2/example.asapalap_equations.lp
min: a1 + a2;
c1: X11 = 1;
c2: X21 = 1;
c3: X32 = 1;
c4: X43 = 1;
c5: X54 = 1;
c6: X61 + X62= 1;
c7: X72 + X73= 1;
c8: X81 + X82 + X83= 1;
c9: X92 + X93 + X94= 1;
c10: X102 + X103= 1;
c11: X112 + X113 + X114= 1;
c12: X125 = 1;

c13: X11 + X21 + X61 + X81 - a1 <= 0;
c14: X32 + X62 + X72 + X82 - a1 <= 0;
c15: X73 + X83 - a1 <= 0;

c16: X92 + X102 + X112 - a2 <= 0;
c17: X43 + X93 + X103 + X113 - a2 <= 0;
c18: X54 + X94 + X114 - a2 <= 0;

int a1, a2, X61, X62, X72, X73, X81, X82, X83, X92, X93, X94, X102, X103, X112, X113, X114;
