Project2/example.asapalap_equations.lp.output

Value of objective function: 4

Actual values of the variables:
a1                              2
a2                              2
X11                             1
X21                             1
X32                             1
X43                             1
X54                             1
X61                             0
X62                             1
X72                             0
X73                             1
X81                             0
X82                             0
X83                             1
X92                             0
X93                             0
X94                             1
X102                            0
X103                            1
X112                            1
X113                            0
X114                            0
X125                            1
